data;
param nombreJob := 7;
param nombreRessource := 3;
param duree := 1 3 2 3 3 5 4 5 5 1 6 1 7 9;
param capaciteRessource := 1 7 2 12 3 15;
param besoinRessource : 1 2 3 :=
                    1   4 2 3
                    2   4 8 1
                    3   1 1 5
                    4   3 7 9
                    5   3 5 3
                    6   2 2 7
                    7   1 6 10;
end;

